336419.56,13.79,15.1
329906.43,14.06,15.4
322800.41,14.37,15.74
329178.16,14.09,15.43
329835.62,14.06,15.4
318789.62,14.55,15.94
324203.64,14.31,15.67
329601.99,14.07,15.41
321583.24,14.42,15.8
323188.52,14.35,15.72
326352.13,14.21,15.57
332885.01,13.93,15.26
324373.38,14.3,15.66
316079.44,14.67,16.07
327965.22,14.14,15.49
321900.56,14.41,15.78
332182.94,13.96,15.29
338844.25,13.69,14.99
321651.17,14.42,15.79
321345.69,14.43,15.81
